c SAT Generator for power-law distributed variable frequencies
c -g u -v 20 -c 91 -k 3 -p 2.750000 -b 3.200000 -f /home/schmidt/Devel/ni-kop-sat/data/ensemble/ruf20-91/ruf20-91-487 -u 1 -U 1 -s 2985203392
p cnf 20 91
-6 13 16 0
-6 8 -9 0
-5 -10 14 0
-2 -4 9 0
-6 14 -20 0
10 12 13 0
2 -4 7 0
-5 15 18 0
-6 7 16 0
8 -12 -13 0
-7 -14 -20 0
-14 15 19 0
-1 -3 -19 0
4 9 12 0
-1 6 9 0
-9 -15 19 0
-3 7 -17 0
3 9 17 0
3 4 11 0
-3 -7 -13 0
3 7 -15 0
-9 17 -19 0
5 9 17 0
1 -4 -10 0
3 7 12 0
13 -16 -18 0
-12 -18 19 0
6 -10 -19 0
5 15 -17 0
9 -10 -18 0
-3 9 -15 0
3 4 10 0
-3 9 -19 0
-10 -11 13 0
8 -11 -20 0
8 -9 -12 0
-6 -13 15 0
1 13 -19 0
1 12 -18 0
2 -10 13 0
3 12 -20 0
2 -4 10 0
7 -9 -20 0
-9 -12 -19 0
6 7 -12 0
9 10 -16 0
1 7 12 0
-12 16 -17 0
8 -17 19 0
12 -16 20 0
2 -10 -13 0
-1 -11 -17 0
-12 18 -20 0
8 -10 -17 0
-6 -10 -12 0
-3 12 17 0
3 8 14 0
-5 -6 20 0
2 4 7 0
6 -11 -15 0
-11 -14 15 0
-5 9 -11 0
-7 -15 19 0
6 -17 -18 0
5 -7 -16 0
4 9 13 0
8 -15 18 0
4 7 -16 0
3 7 8 0
-5 -17 20 0
-5 8 -14 0
-1 -3 -15 0
-8 11 -17 0
11 -12 -19 0
-2 -17 -20 0
5 10 17 0
-2 8 16 0
-4 -13 16 0
-2 -3 18 0
-15 17 -18 0
-2 -5 -20 0
2 -3 -4 0
2 -9 15 0
3 -14 15 0
10 -11 12 0
-4 -7 14 0
3 14 -18 0
2 -6 -14 0
-7 -11 -17 0
-12 14 15 0
7 -9 11 0
